50

100 44 311
99 48 350
98 25 299
97 46 380
95 12 348
94 14 347
92 41 298
92 15 400
91 34 395
82 37 279
80 9 331
77 26 344
76 21 361
75 2 305
73 28 263
73 19 346
73 11 361
71 3 359
68 20 353
65 3 332
65 31 218
63 17 192
63 25 324
63 17 291
60 19 195
59 13 378
53 26 397
45 18 388
44 4 173
40 1 121
31 9 308
25 9 261
24 5 199
24 11 121
24 3 210
23 6 330
22 6 334
21 4 180
21 8 95
15 0 294
14 0 388
14 4 206
10 5 204
10 2 361
7 2 190
7 0 339
6 1 44
3 1 154
2 1 27
2 0 196
